c Random generated cnf formula, satisfiable: true
p cnf 10 50
-10 -4 -1 0
-10 -4 -1 0
-6 8 9 0
-2 -8 -6 0
-4 -7 3 0
1 -3 -2 0
1 2 -8 0
9 6 10 0
6 -1 7 0
-2 3 -9 0
1 -6 10 0
4 -6 -10 0
4 2 7 0
7 -6 -5 0
9 6 10 0
2 3 -8 0
-3 9 4 0
2 -4 7 0
6 5 2 0
-2 -6 -5 0
2 -10 1 0
-2 -6 -4 0
-3 1 -7 0
-3 7 2 0
-9 7 8 0
-10 -9 -7 0
-1 -5 -4 0
7 -8 3 0
10 -3 6 0
5 -1 -6 0
2 -8 1 0
-10 5 -2 0
-1 -4 -3 0
8 -1 7 0
-4 3 6 0
-6 -8 10 0
-3 -9 7 0
3 4 -9 0
10 3 -2 0
-5 -3 7 0
-4 -1 -10 0
-10 -7 -6 0
-8 4 -2 0
-2 7 1 0
-9 -5 -1 0
-2 -9 3 0
1 -4 10 0
7 9 -2 0
-8 2 1 0
-3 6 -10 0
